param n := 120;
param c := 3000
param : V : p w :=
   0	 442	 432
   1	 275	 265
   2	 313	 303
   3	 375	 365
   4	 292	 282
   5	 363	 353
   6	 458	 448
   7	 270	 260
   8	 302	 292
   9	 506	 496
  10	 260	 250
  11	 264	 254
  12	 373	 363
  13	 275	 265
  14	 382	 372
  15	 382	 372
  16	 308	 298
  17	 340	 330
  18	 501	 491
  19	 263	 253
  20	 266	 256
  21	 439	 429
  22	 270	 260
  23	 321	 311
  24	 402	 392
  25	 278	 268
  26	 350	 340
  27	 443	 433
  28	 261	 251
  29	 326	 316
  30	 416	 406
  31	 269	 259
  32	 345	 335
  33	 375	 365
  34	 262	 252
  35	 393	 383
  36	 403	 393
  37	 281	 271
  38	 346	 336
  39	 390	 380
  40	 313	 303
  41	 327	 317
  42	 391	 381
  43	 305	 295
  44	 334	 324
  45	 434	 424
  46	 278	 268
  47	 318	 308
  48	 508	 498
  49	 260	 250
  50	 262	 252
  51	 424	 414
  52	 265	 255
  53	 341	 331
  54	 431	 421
  55	 278	 268
  56	 321	 311
  57	 501	 491
  58	 260	 250
  59	 269	 259
  60	 503	 493
  61	 260	 250
  62	 267	 257
  63	 378	 368
  64	 275	 265
  65	 377	 367
  66	 418	 408
  67	 299	 289
  68	 313	 303
  69	 454	 444
  70	 272	 262
  71	 304	 294
  72	 413	 403
  73	 269	 259
  74	 348	 338
  75	 495	 485
  76	 263	 253
  77	 272	 262
  78	 475	 465
  79	 270	 260
  80	 285	 275
  81	 431	 421
  82	 264	 254
  83	 335	 325
  84	 361	 351
  85	 306	 296
  86	 363	 353
  87	 406	 396
  88	 286	 276
  89	 338	 328
  90	 399	 389
  91	 305	 295
  92	 326	 316
  93	 493	 483
  94	 261	 251
  95	 276	 266
  96	 408	 398
  97	 299	 289
  98	 323	 313
  99	 373	 363
 100	 318	 308
 101	 339	 329
 102	 409	 399
 103	 289	 279
 104	 332	 322
 105	 399	 389
 106	 293	 283
 107	 338	 328
 108	 412	 402
 109	 261	 251
 110	 357	 347
 111	 367	 357
 112	 290	 280
 113	 373	 363
 114	 437	 427
 115	 287	 277
 116	 306	 296
 117	 385	 375
 118	 269	 259
 119	 376	 366
;

set E :=
   0	  13
   0	  24
   0	  36
   0	  45
   0	  54
   0	  59
   0	  60
   0	  94
   0	 113
   1	  14
   1	  17
   1	  38
   1	  64
   1	  65
   1	  66
   1	  68
   1	  82
   1	  88
   1	 104
   1	 115
   2	  28
   2	  45
   2	  49
   2	  54
   2	  59
   2	  61
   2	  69
   2	  96
   2	 117
   3	  17
   3	  21
   3	  35
   3	  37
   3	  48
   3	  51
   3	  52
   3	  58
   3	  72
   3	  85
   3	  86
   3	  91
   3	  92
   3	  99
   3	 101
   3	 105
   4	  13
   4	  45
   4	  58
   4	  68
   4	  69
   4	  80
   4	  89
   4	  91
   4	  97
   4	 106
   4	 109
   5	   7
   5	  14
   5	  23
   5	  27
   5	  34
   5	  44
   5	  48
   5	  52
   5	 112
   6	  13
   6	  19
   6	  20
   6	  30
   6	  31
   6	  32
   6	  49
   6	  65
   6	  84
   6	  95
   6	 114
   7	   8
   7	   9
   7	  10
   7	  19
   7	  22
   7	  40
   7	  45
   7	  93
   7	 107
   7	 115
   8	  15
   8	  21
   8	  28
   8	  51
   8	  60
   8	  98
   8	  99
   8	 108
   9	  15
   9	  32
   9	  35
   9	  50
   9	  60
   9	  67
   9	 101
  10	  15
  10	  26
  10	  28
  10	  37
  10	  54
  10	  56
  10	  64
  10	  66
  10	  68
  10	  71
  10	  93
  10	 102
  10	 117
  11	  29
  11	  30
  11	  31
  11	  33
  11	  54
  11	  58
  11	  61
  11	  68
  11	  73
  11	  78
  11	  88
  11	  91
  11	  98
  11	 107
  11	 108
  11	 109
  12	  27
  12	  37
  12	  43
  12	  44
  12	  70
  12	  90
  12	  93
  12	 110
  12	 111
  12	 115
  13	  42
  13	  45
  13	  47
  13	  50
  13	  53
  13	  55
  13	  69
  13	  73
  13	  87
  13	  94
  13	 100
  13	 103
  13	 109
  13	 112
  13	 118
  14	  22
  14	  33
  14	  36
  14	  38
  14	  44
  14	  52
  14	  54
  14	  82
  14	  90
  14	 100
  14	 102
  14	 108
  14	 112
  14	 114
  15	  17
  15	  18
  15	  19
  15	  28
  15	  37
  15	  58
  15	  69
  15	  90
  15	  99
  15	 109
  16	  44
  16	  61
  16	  71
  16	  99
  16	 101
  16	 102
  16	 105
  16	 109
  17	  18
  17	  25
  17	  31
  17	  41
  17	  51
  17	  52
  17	  71
  17	  94
  17	  97
  17	 101
  17	 104
  17	 113
  18	  26
  18	  30
  18	  51
  18	  52
  18	  54
  18	  62
  18	  63
  18	  68
  18	  72
  18	  80
  18	  97
  19	  23
  19	  26
  19	  29
  19	  42
  19	  47
  19	  53
  19	  83
  19	  85
  19	  88
  19	 108
  20	  23
  20	  30
  20	  77
  20	 111
  20	 113
  20	 114
  21	  31
  21	  38
  21	  49
  21	  55
  21	  65
  21	  78
  21	  82
  21	  85
  21	 116
  22	  34
  22	  52
  22	  53
  22	  65
  22	  66
  22	  70
  22	  87
  22	  97
  22	 103
  22	 105
  22	 107
  22	 119
  23	  24
  23	  32
  23	  36
  23	  43
  23	  46
  23	  70
  23	  78
  23	 109
  23	 115
  24	  27
  24	  42
  24	  50
  24	  51
  24	  55
  24	  72
  24	  96
  24	 111
  24	 119
  25	  33
  25	  55
  25	  70
  25	  75
  25	  89
  25	  94
  25	  98
  26	  32
  26	  48
  26	  66
  26	  81
  26	  94
  26	  99
  26	 112
  27	  32
  27	  55
  27	  71
  27	  84
  27	  99
  27	 107
  27	 108
  27	 117
  28	  34
  28	  37
  28	  39
  28	  51
  28	  63
  28	  69
  28	  77
  28	  83
  28	  91
  28	  95
  28	 119
  29	  58
  29	  61
  29	  67
  29	  69
  29	  74
  29	  94
  29	  96
  29	 101
  29	 104
  29	 107
  29	 112
  29	 113
  29	 114
  30	  35
  30	  91
  30	  96
  30	 101
  30	 103
  30	 106
  30	 107
  30	 116
  30	 118
  31	  32
  31	  58
  31	  78
  31	  84
  31	 106
  31	 115
  31	 119
  32	  41
  32	  49
  32	  84
  32	 101
  32	 111
  32	 114
  32	 118
  33	  46
  33	  67
  33	  70
  33	  73
  33	 112
  33	 119
  34	  46
  34	  85
  34	 102
  34	 110
  34	 113
  35	  50
  35	  65
  35	  74
  35	  80
  35	 100
  35	 105
  35	 112
  36	  52
  36	  53
  36	  73
  36	  82
  36	  83
  36	  86
  36	  90
  36	  96
  36	  98
  36	 114
  37	  45
  37	  51
  37	  69
  37	  78
  37	  81
  37	  91
  37	  99
  37	 103
  38	  40
  38	  47
  38	  51
  38	  52
  38	  65
  38	  68
  38	  73
  38	  78
  38	  96
  38	 100
  38	 115
  39	  45
  39	  51
  39	  88
  39	  90
  40	  43
  40	  52
  40	  59
  40	  68
  40	  78
  40	  97
  40	 103
  41	  42
  41	  43
  41	  51
  41	  79
  41	  83
  41	 100
  42	  45
  42	  49
  42	  66
  42	  71
  42	 101
  42	 102
  42	 113
  43	  54
  43	  68
  43	  87
  43	 113
  44	  58
  44	  65
  44	  66
  44	  84
  44	  88
  44	 107
  44	 113
  45	  68
  45	  93
  45	  98
  45	 103
  45	 110
  45	 112
  45	 118
  46	  48
  46	  54
  46	  60
  46	  80
  46	  99
  46	 106
  46	 108
  46	 109
  46	 114
  46	 117
  47	  58
  47	  70
  47	  72
  47	  77
  47	  86
  47	  96
  47	 110
  47	 115
  48	  49
  48	  57
  48	  69
  48	  82
  48	 104
  48	 107
  48	 111
  48	 119
  49	  60
  49	  67
  49	  74
  49	  85
  49	  90
  49	  96
  49	 102
  49	 107
  49	 115
  50	  53
  50	  60
  50	  64
  50	  77
  50	  81
  50	  96
  50	 100
  50	 109
  51	  52
  51	  69
  51	  87
  51	  89
  51	  93
  51	 100
  51	 103
  51	 104
  51	 108
  51	 113
  51	 115
  52	  54
  52	  62
  52	  67
  52	  71
  52	  75
  52	  88
  52	  92
  52	 106
  53	  59
  53	  62
  53	  78
  53	  92
  53	 103
  54	  59
  54	  61
  54	  66
  54	 113
  55	  58
  55	  68
  55	  70
  55	  72
  55	  95
  56	  61
  56	  65
  56	  78
  56	  86
  56	  87
  56	  94
  56	  99
  56	 103
  57	  63
  57	  79
  57	  84
  57	  88
  57	  94
  57	 110
  57	 111
  57	 119
  58	  64
  58	  68
  58	  71
  58	  88
  58	 105
  58	 115
  59	  65
  59	  68
  59	  71
  59	  72
  59	  73
  60	  80
  60	  82
  60	  83
  60	  85
  60	 107
  60	 110
  60	 112
  61	  94
  61	  98
  61	 102
  61	 107
  62	  72
  62	  80
  62	  86
  62	  89
  62	  92
  62	 104
  62	 112
  63	  72
  63	  81
  63	  91
  63	 101
  63	 117
  63	 119
  64	  67
  64	  70
  64	  77
  64	  81
  64	  91
  65	  66
  65	  69
  65	  71
  65	  72
  65	  77
  65	  81
  65	 106
  66	  76
  66	  81
  66	  86
  66	  97
  66	  98
  66	 113
  66	 119
  67	  71
  67	  90
  67	  99
  67	 100
  67	 106
  67	 109
  67	 115
  67	 116
  68	  70
  68	 103
  68	 109
  68	 115
  69	  71
  69	  76
  69	  77
  69	  86
  69	  94
  69	  96
  69	 109
  70	  72
  70	  83
  70	  85
  70	  86
  70	 118
  71	  78
  71	  95
  71	 111
  71	 118
  72	  87
  72	  94
  72	 101
  72	 104
  72	 119
  73	  91
  73	  98
  73	 102
  73	 104
  73	 111
  74	 106
  74	 109
  74	 119
  75	  79
  75	  85
  75	  88
  76	  85
  77	  78
  77	  83
  77	  88
  77	  95
  77	  97
  77	 115
  78	  81
  78	  87
  78	  95
  78	 117
  79	  85
  79	  90
  79	  95
  79	 113
  79	 114
  80	  84
  80	  93
  80	 101
  80	 105
  80	 117
  81	 103
  81	 115
  82	  88
  82	  90
  82	  97
  82	  98
  82	 100
  82	 101
  82	 113
  82	 117
  83	  85
  83	  92
  83	 102
  83	 112
  83	 113
  83	 117
  84	  89
  84	  98
  84	 116
  85	  91
  85	 101
  85	 110
  86	  91
  86	  99
  86	 102
  86	 103
  87	 101
  87	 111
  87	 112
  88	  90
  88	 105
  89	  97
  89	 104
  89	 112
  90	  93
  90	  99
  90	 100
  91	 103
  91	 107
  91	 113
  92	 115
  93	 110
  94	  95
  94	  96
  95	 105
  95	 106
  95	 113
  95	 116
  96	  99
  97	 108
  98	 104
  98	 107
  98	 109
  98	 110
  98	 116
  99	 101
  99	 111
  99	 118
 100	 102
 100	 115
 100	 118
 101	 108
 101	 109
 101	 111
 101	 117
 102	 107
 102	 111
 103	 106
 103	 118
 103	 119
 104	 108
 104	 113
 104	 114
 105	 114
 106	 108
 106	 113
 108	 119
 109	 110
 110	 116
 110	 118
 111	 112
 112	 114
 112	 119
 113	 119
 115	 119
 117	 118
;
